NAME : G100_2111_01
COMMENT : Generated CVRP instance (n=100)
TYPE : CVRP
DIMENSION : 101
EDGE_WEIGHT_TYPE : EUC_2D
CAPACITY : 3
NODE_COORD_SECTION
1    500  500 
2    623  612 
3    106  795 
4    674  203 
5    682  335 
6    88   847 
7    893  930 
8    61   692 
9    836  859 
10   792  737 
11   78   781 
12   330  993 
13   4    423 
14   897  747 
15   703  680 
16   354  47  
17   681  744 
18   960  287 
19   141  522 
20   224  691 
21   895  749 
22   898  220 
23   359  836 
24   195  532 
25   758  142 
26   251  119 
27   849  409 
28   988  488 
29   886  266 
30   58   346 
31   447  277 
32   595  776 
33   929  856 
34   106  657 
35   323  728 
36   429  264 
37   711  489 
38   557  495 
39   839  156 
40   231  74  
41   776  216 
42   169  108 
43   58   878 
44   111  466 
45   285  438 
46   498  820 
47   698  281 
48   555  491 
49   540  63  
50   860  910 
51   59   669 
52   279  324 
53   761  476 
54   144  90  
55   799  405 
56   184  355 
57   834  692 
58   673  329 
59   191  970 
60   346  819 
61   307  644 
62   611  326 
63   896  660 
64   112  572 
65   590  269 
66   871  386 
67   207  644 
68   135  91  
69   579  662 
70   503  633 
71   637  896 
72   75   244 
73   973  912 
74   105  745 
75   736  44  
76   619  53  
77   646  190 
78   305  443 
79   288  973 
80   680  832 
81   657  949 
82   64   682 
83   194  984 
84   10   537 
85   407  655 
86   56   815 
87   484  432 
88   122  15  
89   112  734 
90   596  728 
91   323  297 
92   990  941 
93   390  906 
94   311  42  
95   130  641 
96   65   578 
97   31   628 
98   691  482 
99   782  20  
100  579  899 
101  244  564 
DEMAND_SECTION
1    0   
2    1   
3    1   
4    1   
5    1   
6    1   
7    1   
8    1   
9    1   
10   1   
11   1   
12   1   
13   1   
14   1   
15   1   
16   1   
17   1   
18   1   
19   1   
20   1   
21   1   
22   1   
23   1   
24   1   
25   1   
26   1   
27   1   
28   1   
29   1   
30   1   
31   1   
32   1   
33   1   
34   1   
35   1   
36   1   
37   1   
38   1   
39   1   
40   1   
41   1   
42   1   
43   1   
44   1   
45   1   
46   1   
47   1   
48   1   
49   1   
50   1   
51   1   
52   1   
53   1   
54   1   
55   1   
56   1   
57   1   
58   1   
59   1   
60   1   
61   1   
62   1   
63   1   
64   1   
65   1   
66   1   
67   1   
68   1   
69   1   
70   1   
71   1   
72   1   
73   1   
74   1   
75   1   
76   1   
77   1   
78   1   
79   1   
80   1   
81   1   
82   1   
83   1   
84   1   
85   1   
86   1   
87   1   
88   1   
89   1   
90   1   
91   1   
92   1   
93   1   
94   1   
95   1   
96   1   
97   1   
98   1   
99   1   
100  1   
101  1   
DEPOT_SECTION
1
-1
EOF
